p cnf 154 378
a 2 13 11 9 64 22 74 30 38 91 45 104 109 117 125 133 141 1 8 21 29 37 44 0
d 54 13 1 0
d 32 74 21 0
d 24 64 8 0
d 47 91 37 0
d 86 38 29 0
d 103 104 44 0
d 3 2 0
d 4 2 0
d 5 2 0
d 6 1 2 0
d 7 1 2 0
d 10 9 0
d 12 11 0
d 14 13 0
d 15 13 2 0
d 16 11 13 2 0
d 17 9 11 13 2 0
d 18 8 9 11 13 2 0
d 19 8 9 11 13 2 0
d 20 1 2 8 9 11 13 0
d 23 22 0
d 25 22 64 8 0
d 26 21 22 64 8 0
d 27 21 22 64 8 0
d 28 1 2 8 9 11 13 21 22 64 0
d 31 30 0
d 33 30 74 21 0
d 34 29 30 74 21 0
d 35 29 30 74 21 0
d 36 1 2 8 9 11 13 21 22 64 29 30 74 0
d 39 38 0
d 40 38 30 74 21 0
d 41 37 38 30 74 21 0
d 42 37 38 30 74 21 0
d 43 1 2 8 9 11 13 21 22 64 29 30 74 37 38 0
d 46 45 0
d 48 45 91 37 0
d 49 44 45 91 37 0
d 50 44 45 91 37 0
d 51 1 2 8 9 11 13 21 22 64 29 30 74 37 38 44 45 91 0
d 52 2 0
d 53 2 0
d 55 13 2 0
d 56 13 1 2 0
d 57 2 13 1 0
d 58 11 13 2 0
d 59 11 13 2 0
d 60 2 13 1 11 0
d 61 9 11 13 2 0
d 62 9 11 13 2 0
d 63 2 13 1 11 9 0
d 65 64 9 11 13 2 0
d 66 64 9 11 13 2 0
d 67 2 13 1 11 9 64 0
d 68 22 64 8 0
d 69 64 0
d 70 64 9 11 13 2 0
d 71 22 64 9 11 13 2 0
d 72 22 64 8 9 11 13 2 0
d 73 2 13 1 11 9 64 22 8 0
d 75 74 22 64 8 0
d 76 22 64 9 11 13 2 0
d 77 74 22 64 9 11 13 2 0
d 78 74 22 64 8 9 11 13 2 0
d 79 2 13 1 11 9 64 22 8 74 0
d 80 30 74 21 0
d 81 74 0
d 82 74 22 64 9 11 13 2 0
d 83 30 74 22 64 9 11 13 2 0
d 84 30 74 21 22 64 9 11 13 2 0
d 85 2 13 1 11 9 64 22 8 74 30 21 0
d 87 30 74 22 64 9 11 13 2 0
d 88 38 30 74 22 64 9 11 13 2 0
d 89 38 29 30 74 22 64 9 11 13 2 0
d 90 2 13 1 11 9 64 22 8 74 30 21 38 29 0
d 92 91 38 30 74 21 0
d 93 38 30 74 22 64 9 11 13 2 0
d 94 91 38 30 74 22 64 9 11 13 2 0
d 95 91 38 30 74 21 22 64 9 11 13 2 0
d 96 2 13 1 11 9 64 22 8 74 30 21 38 29 91 0
d 97 45 91 37 0
d 98 91 0
d 99 91 38 30 74 22 64 9 11 13 2 0
d 100 45 91 38 30 74 22 64 9 11 13 2 0
d 101 45 91 37 38 30 74 22 64 9 11 13 2 0
d 102 2 13 1 11 9 64 22 8 74 30 21 38 29 91 45 37 0
d 105 45 91 38 30 74 22 64 9 11 13 2 0
d 106 104 45 91 38 30 74 22 64 9 11 13 2 0
d 107 104 44 45 91 38 30 74 22 64 9 11 13 2 0
d 108 2 13 1 11 9 64 22 8 74 30 21 38 29 91 45 37 104 44 0
d 110 104 0
d 111 104 45 91 37 0
d 112 109 104 45 91 37 0
d 113 104 45 91 38 30 74 22 64 9 11 13 2 0
d 114 109 104 45 91 38 30 74 22 64 9 11 13 2 0
d 115 109 104 45 91 37 38 30 74 22 64 9 11 13 2 0
d 116 2 13 1 11 9 64 22 8 74 30 21 38 29 91 45 37 104 44 109 0
d 118 109 0
d 119 109 104 45 91 37 0
d 120 117 109 104 45 91 37 0
d 121 109 104 45 91 38 30 74 22 64 9 11 13 2 0
d 122 117 109 104 45 91 38 30 74 22 64 9 11 13 2 0
d 123 117 109 104 45 91 37 38 30 74 22 64 9 11 13 2 0
d 124 2 13 1 11 9 64 22 8 74 30 21 38 29 91 45 37 104 44 109 117 0
d 126 117 0
d 127 117 109 104 45 91 37 0
d 128 125 117 109 104 45 91 37 0
d 129 117 109 104 45 91 38 30 74 22 64 9 11 13 2 0
d 130 125 117 109 104 45 91 38 30 74 22 64 9 11 13 2 0
d 131 125 117 109 104 45 91 37 38 30 74 22 64 9 11 13 2 0
d 132 2 13 1 11 9 64 22 8 74 30 21 38 29 91 45 37 104 44 109 117 125 0
d 134 125 0
d 135 125 117 109 104 45 91 37 0
d 136 133 125 117 109 104 45 91 37 0
d 137 125 117 109 104 45 91 38 30 74 22 64 9 11 13 2 0
d 138 133 125 117 109 104 45 91 38 30 74 22 64 9 11 13 2 0
d 139 133 125 117 109 104 45 91 37 38 30 74 22 64 9 11 13 2 0
d 140 2 13 1 11 9 64 22 8 74 30 21 38 29 91 45 37 104 44 109 117 125 133 0
d 142 133 125 117 109 104 45 91 37 0
d 143 141 133 125 117 109 104 45 91 37 0
d 144 133 0
d 145 133 125 117 109 104 45 91 38 30 74 22 64 9 11 13 2 0
d 146 141 133 125 117 109 104 45 91 38 30 74 22 64 9 11 13 2 0
d 147 141 133 125 117 109 104 45 91 37 38 30 74 22 64 9 11 13 2 0
d 148 2 13 1 11 9 64 22 8 74 30 21 38 29 91 45 37 104 44 109 117 125 133 141 0
d 149 141 0
d 150 141 133 125 117 109 104 45 91 37 0
d 151 141 133 125 117 109 104 45 91 38 30 74 22 64 9 11 13 2 0
d 152 141 133 125 117 109 104 45 91 37 38 30 74 22 64 9 11 13 2 0
d 153 2 13 1 11 9 64 22 8 74 30 21 38 29 91 45 37 104 44 109 117 125 133 141 0
d 154 1 2 8 9 11 13 21 22 64 29 30 74 37 38 44 45 91 104 109 117 125 133 141 0
3 2 0
-3 -2 0
4 -2 0
4 -3 0
-4 2 3 0
-5 3 0
-5 4 0
5 -3 -4 0
6 -1 -5 0
6 1 5 0
-6 -1 5 0
-6 1 -5 0
7 6 0
-7 -6 0
10 9 0
-10 -9 0
12 11 0
-12 -11 0
14 13 0
-14 -13 0
-15 14 0
-15 5 0
15 -14 -5 0
-16 12 0
-16 15 0
16 -12 -15 0
-17 10 0
-17 16 0
17 -10 -16 0
18 -8 -17 0
18 8 17 0
-18 -8 17 0
-18 8 -17 0
19 18 0
-19 -18 0
20 -7 0
20 -19 0
-20 7 19 0
23 22 0
-23 -22 0
-25 23 0
-25 24 0
25 -23 -24 0
26 -21 -25 0
26 21 25 0
-26 -21 25 0
-26 21 -25 0
27 26 0
-27 -26 0
28 -20 0
28 -27 0
-28 20 27 0
31 30 0
-31 -30 0
-33 31 0
-33 32 0
33 -31 -32 0
34 -29 -33 0
34 29 33 0
-34 -29 33 0
-34 29 -33 0
35 34 0
-35 -34 0
36 -28 0
36 -35 0
-36 28 35 0
39 38 0
-39 -38 0
-40 39 0
-40 33 0
40 -39 -33 0
41 -37 -40 0
41 37 40 0
-41 -37 40 0
-41 37 -40 0
42 41 0
-42 -41 0
43 -36 0
43 -42 0
-43 36 42 0
46 45 0
-46 -45 0
-48 46 0
-48 47 0
48 -46 -47 0
49 -44 -48 0
49 44 48 0
-49 -44 48 0
-49 44 -48 0
50 49 0
-50 -49 0
51 -43 0
51 -50 0
-51 43 50 0
-52 2 0
-52 4 0
52 -2 -4 0
53 -52 -52 0
53 52 52 0
-53 -52 52 0
-53 52 -52 0
-55 13 0
-55 5 0
55 -13 -5 0
56 -54 -55 0
56 54 55 0
-56 -54 55 0
-56 54 -55 0
-57 53 0
-57 56 0
57 -53 -56 0
-58 11 0
-58 15 0
58 -11 -15 0
59 -58 -58 0
59 58 58 0
-59 -58 58 0
-59 58 -58 0
-60 57 0
-60 59 0
60 -57 -59 0
-61 9 0
-61 16 0
61 -9 -16 0
62 -61 -61 0
62 61 61 0
-62 -61 61 0
-62 61 -61 0
-63 60 0
-63 62 0
63 -60 -62 0
-65 64 0
-65 17 0
65 -64 -17 0
66 -65 -65 0
66 65 65 0
-66 -65 65 0
-66 65 -65 0
-67 63 0
-67 66 0
67 -63 -66 0
-68 22 0
-68 24 0
68 -22 -24 0
69 64 0
-69 -64 0
-70 69 0
-70 17 0
70 -69 -17 0
-71 22 0
-71 70 0
71 -22 -70 0
72 -68 -71 0
72 68 71 0
-72 -68 71 0
-72 68 -71 0
-73 67 0
-73 72 0
73 -67 -72 0
-75 74 0
-75 25 0
75 -74 -25 0
-76 23 0
-76 70 0
76 -23 -70 0
-77 74 0
-77 76 0
77 -74 -76 0
78 -75 -77 0
78 75 77 0
-78 -75 77 0
-78 75 -77 0
-79 73 0
-79 78 0
79 -73 -78 0
-80 30 0
-80 32 0
80 -30 -32 0
81 74 0
-81 -74 0
-82 81 0
-82 76 0
82 -81 -76 0
-83 30 0
-83 82 0
83 -30 -82 0
84 -80 -83 0
84 80 83 0
-84 -80 83 0
-84 80 -83 0
-85 79 0
-85 84 0
85 -79 -84 0
-87 31 0
-87 82 0
87 -31 -82 0
-88 38 0
-88 87 0
88 -38 -87 0
89 -86 -88 0
89 86 88 0
-89 -86 88 0
-89 86 -88 0
-90 85 0
-90 89 0
90 -85 -89 0
-92 91 0
-92 40 0
92 -91 -40 0
-93 39 0
-93 87 0
93 -39 -87 0
-94 91 0
-94 93 0
94 -91 -93 0
95 -92 -94 0
95 92 94 0
-95 -92 94 0
-95 92 -94 0
-96 90 0
-96 95 0
96 -90 -95 0
-97 45 0
-97 47 0
97 -45 -47 0
98 91 0
-98 -91 0
-99 98 0
-99 93 0
99 -98 -93 0
-100 45 0
-100 99 0
100 -45 -99 0
101 -97 -100 0
101 97 100 0
-101 -97 100 0
-101 97 -100 0
-102 96 0
-102 101 0
102 -96 -101 0
-105 46 0
-105 99 0
105 -46 -99 0
-106 104 0
-106 105 0
106 -104 -105 0
107 -103 -106 0
107 103 106 0
-107 -103 106 0
-107 103 -106 0
-108 102 0
-108 107 0
108 -102 -107 0
110 104 0
-110 -104 0
-111 110 0
-111 48 0
111 -110 -48 0
-112 109 0
-112 111 0
112 -109 -111 0
-113 110 0
-113 105 0
113 -110 -105 0
-114 109 0
-114 113 0
114 -109 -113 0
115 -112 -114 0
115 112 114 0
-115 -112 114 0
-115 112 -114 0
-116 108 0
-116 115 0
116 -108 -115 0
118 109 0
-118 -109 0
-119 118 0
-119 111 0
119 -118 -111 0
-120 117 0
-120 119 0
120 -117 -119 0
-121 118 0
-121 113 0
121 -118 -113 0
-122 117 0
-122 121 0
122 -117 -121 0
123 -120 -122 0
123 120 122 0
-123 -120 122 0
-123 120 -122 0
-124 116 0
-124 123 0
124 -116 -123 0
126 117 0
-126 -117 0
-127 126 0
-127 119 0
127 -126 -119 0
-128 125 0
-128 127 0
128 -125 -127 0
-129 126 0
-129 121 0
129 -126 -121 0
-130 125 0
-130 129 0
130 -125 -129 0
131 -128 -130 0
131 128 130 0
-131 -128 130 0
-131 128 -130 0
-132 124 0
-132 131 0
132 -124 -131 0
134 125 0
-134 -125 0
-135 134 0
-135 127 0
135 -134 -127 0
-136 133 0
-136 135 0
136 -133 -135 0
-137 134 0
-137 129 0
137 -134 -129 0
-138 133 0
-138 137 0
138 -133 -137 0
139 -136 -138 0
139 136 138 0
-139 -136 138 0
-139 136 -138 0
-140 132 0
-140 139 0
140 -132 -139 0
142 -133 -135 0
142 133 135 0
-142 -133 135 0
-142 133 -135 0
-143 141 0
-143 142 0
143 -141 -142 0
144 133 0
-144 -133 0
-145 144 0
-145 137 0
145 -144 -137 0
-146 141 0
-146 145 0
146 -141 -145 0
147 -143 -146 0
147 143 146 0
-147 -143 146 0
-147 143 -146 0
-148 140 0
-148 147 0
148 -140 -147 0
149 141 0
-149 -141 0
-150 149 0
-150 142 0
150 -149 -142 0
-151 149 0
-151 145 0
151 -149 -145 0
152 -150 -151 0
152 150 151 0
-152 -150 151 0
-152 150 -151 0
-153 148 0
-153 152 0
153 -148 -152 0
154 -51 0
154 -153 0
-154 51 153 0
154 0
